nP = 3;
nT = 12;
nC1 = 12;
nC2 = 28;
nA = 87;
nD = 3;

arc_from = [3, 1, 1, 3, 1, 3, 2, 2, 2, 3, 1, 2, 2, 1, 3, 2, 2, 1, 2, 4, 5, 5, 6, 7, 8, 8, 9, 9, 9, 10, 10, 11, 11, 12, 13, 13, 14, 14, 14, 15, 15, 22, 24, 27, 27, 24, 25, 19, 23, 19, 20, 22, 23, 16, 22, 21, 26, 26, 22, 27, 18, 23, 18, 25, 24, 16, 22, 25, 25, 16, 17, 17, 18, 18, 19, 19, 20, 21, 21, 22, 22, 23, 23, 24, 25, 26, 27];
arc_to = [4, 5, 6, 6, 7, 7, 8, 9, 10, 10, 11, 11, 12, 12, 13, 13, 14, 15, 15, 20, 21, 24, 18, 19, 27, 18, 19, 17, 22, 21, 24, 22, 16, 22, 25, 16, 22, 23, 16, 20, 22, 28, 29, 30, 31, 32, 33, 34, 35, 36, 37, 38, 39, 40, 41, 42, 43, 44, 45, 46, 47, 48, 49, 50, 51, 52, 53, 54, 55, 30, 32, 55, 33, 29, 40, 38, 42, 38, 52, 36, 52, 36, 54, 43, 51, 39, 48];

supply = [769.38, 769.38, 769.38, 0.00, 0.00, 0.00, 0.00, 0.00, 0.00, 0.00, 0.00, 0.00, 0.00, 0.00, 0.00, 0.00, 0.00, 0.00, 0.00, 0.00, 0.00, 0.00, 0.00, 0.00, 0.00, 0.00, 0.00, 0.00, 0.00, 0.00, 0.00, 0.00, 0.00, 0.00, 0.00, 0.00, 0.00, 0.00, 0.00, 0.00, 0.00, 0.00, 0.00, 0.00, 0.00, 0.00, 0.00, 0.00, 0.00, 0.00, 0.00, 0.00, 0.00, 0.00, 0.00];
demand = [0.00, 0.00, 0.00, 0.00, 0.00, 0.00, 0.00, 0.00, 0.00, 0.00, 0.00, 0.00, 0.00, 0.00, 0.00, 34.97, 33.12, 28.42, 34.55, 30.85, 35.63, 28.19, 33.31, 31.20, 36.74, 29.87, 28.66, 50.57, 45.05, 47.37, 51.91, 48.72, 54.20, 57.42, 53.08, 51.58, 44.31, 51.68, 50.82, 40.61, 57.27, 43.36, 44.82, 54.45, 41.66, 39.70, 57.89, 50.66, 53.71, 47.64, 55.99, 49.97, 52.74, 46.25, 46.55];

max_capacity = [795, 1414, 3181];

install_cost = array2d(1..nA, 1..nD, [
  20, 24, 32,
  50, 62, 78,
  20, 24, 32,
  50, 62, 78,
  20, 24, 32,
  50, 62, 78,
  20, 24, 32,
  50, 62, 78,
  20, 24, 32,
  50, 62, 78,
  20, 24, 32,
  50, 62, 78,
  20, 24, 32,
  50, 62, 78,
  20, 24, 32,
  50, 62, 78,
  20, 24, 32,
  50, 62, 78,
  20, 24, 32,
  50, 62, 78,
  20, 24, 32,
  50, 62, 78,
  20, 24, 32,
  50, 62, 78,
  20, 24, 32,
  50, 62, 78,
  20, 24, 32,
  50, 62, 78,
  20, 24, 32,
  50, 62, 78,
  20, 24, 32,
  50, 62, 78,
  20, 24, 32,
  50, 62, 78,
  20, 24, 32,
  50, 62, 78,
  20, 24, 32,
  50, 62, 78,
  20, 24, 32,
  50, 62, 78,
  20, 24, 32,
  50, 62, 78,
  20, 24, 32,
  50, 62, 78,
  20, 24, 32,
  50, 62, 78,
  20, 24, 32,
  50, 62, 78,
  20, 24, 32,
  50, 62, 78,
  20, 24, 32,
  50, 62, 78,
  20, 24, 32,
  50, 62, 78,
  20, 24, 32,
  50, 62, 78,
  20, 24, 32,
  50, 62, 78,
  20, 24, 32,
  50, 62, 78,
  20, 24, 32,
  50, 62, 78,
  20, 24, 32,
  50, 62, 78,
  20, 24, 32,
  50, 62, 78,
  20, 24, 32,
  50, 62, 78,
  20, 24, 32,
  50, 62, 78,
  20, 24, 32,
  50, 62, 78,
  20, 24, 32,
  50, 62, 78,
  20, 24, 32,
  50, 62, 78,
  20, 24, 32,
  50, 62, 78,
  20, 24, 32,
  50, 62, 78,
  20, 24, 32,
  50, 62, 78,
  20, 24, 32,
  50, 62, 78,
  20, 24, 32,
  50, 62, 78,
  20, 24, 32
]);

trans_cost = [5.53, 7.14, 4.84, 5.64, 5.27, 6.12, 9.47, 3.20, 7.03, 3.58, 5.29, 7.63, 6.10, 4.38, 4.93, 7.02, 4.90, 6.32, 6.07, 5.02, 9.22, 6.95, 2.96, 6.28, 5.01, 7.28, 4.81, 5.83, 6.76, 7.30, 4.20, 5.50, 5.29, 5.02, 8.65, 6.61, 4.11, 7.38, 9.18, 7.55, 3.72, 5.27, 7.90, 4.94, 6.67, 7.16, 4.61, 5.91, 1.14, 4.46, 5.62, 4.13, 8.45, 3.85, 5.34, 6.20, 8.16, 3.85, 7.74, 6.02, 4.53, 6.69, 6.30, 5.10, 6.10, 5.42, 6.17, 6.99, 8.38, 4.14, 9.20, 3.07, 5.77, 6.88, 6.42, 5.07, 5.69, 5.26, 5.12, 7.27, 6.54, 4.96, 7.35, 6.46, 7.22, 6.94, 4.76];

% Metadata: {'tamaño': 'medianas', 'numero': 1, 'grupo': 5, 'demanda_total': 1775.49, 'suministro_total': 2308.14, 'factor_holgura': 1.3, 'num_arcos': 87, 'conectividad': {'plantas_tanques': 19, 'tanques_transbordo': 22, 'transbordo_finales': 46}}
% Total supply: 2308.14
% Total demand: 1775.49
% Balance factor: 1.30
